NAME : local_5
TYPE : ATSP
DIMENSION : 6
EDGE_WEIGHT_TYPE : EXPLICIT
EDGE_WEIGHT_FORMAT : FULL_MATRIX
EDGE_WEIGHT_SECTION
0 602 813 614 669 402 
0 0 760 612 842 504 
0 760 0 10000000 306 429 
0 612 10000000 0 10000000 851 
0 842 306 10000000 0 394 
0 10000000 10000000 10000000 10000000 0 
EOF